BAYES
400
2 2 2 2 2 2 2 2 2 2 2 2 2 2 2 2 2 2 2 2 2 2 2 2 2 2 2 2 2 2 2 2 2 2 2 2 2 2 2 2 2 2 2 2 2 2 2 2 2 2 2 2 2 2 2 2 2 2 2 2 2 2 2 2 2 2 2 2 2 2 2 2 2 2 2 2 2 2 2 2 2 2 2 2 2 2 2 2 2 2 2 2 2 2 2 2 2 2 2 2 2 2 2 2 2 2 2 2 2 2 2 2 2 2 2 2 2 2 2 2 2 2 2 2 2 2 2 2 2 2 2 2 2 2 2 2 2 2 2 2 2 2 2 2 2 2 2 2 2 2 2 2 2 2 2 2 2 2 2 2 2 2 2 2 2 2 2 2 2 2 2 2 2 2 2 2 2 2 2 2 2 2 2 2 2 2 2 2 2 2 2 2 2 2 2 2 2 2 2 2 2 2 2 2 2 2 2 2 2 2 2 2 2 2 2 2 2 2 2 2 2 2 2 2 2 2 2 2 2 2 2 2 2 2 2 2 2 2 2 2 2 2 2 2 2 2 2 2 2 2 2 2 2 2 2 2 2 2 2 2 2 2 2 2 2 2 2 2 2 2 2 2 2 2 2 2 2 2 2 2 2 2 2 2 2 2 2 2 2 2 2 2 2 2 2 2 2 2 2 2 2 2 2 2 2 2 2 2 2 2 2 2 2 2 2 2 2 2 2 2 2 2 2 2 2 2 2 2 2 2 2 2 2 2 2 2 2 2 2 2 2 2 2 2 2 2 2 2 2 2 2 2 2 2 2 2 2 2 2 2 2 2 2 2 2 2 2 2 2 2 2 2 2 2 2 2 2 2 2 2 2 2 2 2 2 2 2 2 2 2 2 2 2 2 2 2 2 2 2 2
400
3 20 1 0
3 21 2 1
3 22 3 2
3 23 4 3
3 24 5 4
3 25 6 5
3 26 7 6
3 27 8 7
3 28 9 8
3 29 10 9
3 30 11 10
3 31 12 11
3 32 13 12
3 33 14 13
3 34 15 14
3 35 16 15
3 36 17 16
3 37 18 17
3 38 19 18
2 39 19
3 40 21 20
3 41 22 21
3 42 23 22
3 43 24 23
3 44 25 24
3 45 26 25
3 46 27 26
3 47 28 27
3 48 29 28
3 49 30 29
3 50 31 30
3 51 32 31
3 52 33 32
3 53 34 33
3 54 35 34
3 55 36 35
3 56 37 36
3 57 38 37
3 58 39 38
2 59 39
3 60 41 40
3 61 42 41
3 62 43 42
3 63 44 43
3 64 45 44
3 65 46 45
3 66 47 46
3 67 48 47
3 68 49 48
3 69 50 49
3 70 51 50
3 71 52 51
3 72 53 52
3 73 54 53
3 74 55 54
3 75 56 55
3 76 57 56
3 77 58 57
3 78 59 58
2 79 59
3 80 61 60
3 81 62 61
3 82 63 62
3 83 64 63
3 84 65 64
3 85 66 65
3 86 67 66
3 87 68 67
3 88 69 68
3 89 70 69
3 90 71 70
3 91 72 71
3 92 73 72
3 93 74 73
3 94 75 74
3 95 76 75
3 96 77 76
3 97 78 77
3 98 79 78
2 99 79
3 100 81 80
3 101 82 81
3 102 83 82
3 103 84 83
3 104 85 84
3 105 86 85
3 106 87 86
3 107 88 87
3 108 89 88
3 109 90 89
3 110 91 90
3 111 92 91
3 112 93 92
3 113 94 93
3 114 95 94
3 115 96 95
3 116 97 96
3 117 98 97
3 118 99 98
2 119 99
3 120 101 100
3 121 102 101
3 122 103 102
3 123 104 103
3 124 105 104
3 125 106 105
3 126 107 106
3 127 108 107
3 128 109 108
3 129 110 109
3 130 111 110
3 131 112 111
3 132 113 112
3 133 114 113
3 134 115 114
3 135 116 115
3 136 117 116
3 137 118 117
3 138 119 118
2 139 119
3 140 121 120
3 141 122 121
3 142 123 122
3 143 124 123
3 144 125 124
3 145 126 125
3 146 127 126
3 147 128 127
3 148 129 128
3 149 130 129
3 150 131 130
3 151 132 131
3 152 133 132
3 153 134 133
3 154 135 134
3 155 136 135
3 156 137 136
3 157 138 137
3 158 139 138
2 159 139
3 160 141 140
3 161 142 141
3 162 143 142
3 163 144 143
3 164 145 144
3 165 146 145
3 166 147 146
3 167 148 147
3 168 149 148
3 169 150 149
3 170 151 150
3 171 152 151
3 172 153 152
3 173 154 153
3 174 155 154
3 175 156 155
3 176 157 156
3 177 158 157
3 178 159 158
2 179 159
3 180 161 160
3 181 162 161
3 182 163 162
3 183 164 163
3 184 165 164
3 185 166 165
3 186 167 166
3 187 168 167
3 188 169 168
3 189 170 169
3 190 171 170
3 191 172 171
3 192 173 172
3 193 174 173
3 194 175 174
3 195 176 175
3 196 177 176
3 197 178 177
3 198 179 178
2 199 179
3 200 181 180
3 201 182 181
3 202 183 182
3 203 184 183
3 204 185 184
3 205 186 185
3 206 187 186
3 207 188 187
3 208 189 188
3 209 190 189
3 210 191 190
3 211 192 191
3 212 193 192
3 213 194 193
3 214 195 194
3 215 196 195
3 216 197 196
3 217 198 197
3 218 199 198
2 219 199
3 220 201 200
3 221 202 201
3 222 203 202
3 223 204 203
3 224 205 204
3 225 206 205
3 226 207 206
3 227 208 207
3 228 209 208
3 229 210 209
3 230 211 210
3 231 212 211
3 232 213 212
3 233 214 213
3 234 215 214
3 235 216 215
3 236 217 216
3 237 218 217
3 238 219 218
2 239 219
3 240 221 220
3 241 222 221
3 242 223 222
3 243 224 223
3 244 225 224
3 245 226 225
3 246 227 226
3 247 228 227
3 248 229 228
3 249 230 229
3 250 231 230
3 251 232 231
3 252 233 232
3 253 234 233
3 254 235 234
3 255 236 235
3 256 237 236
3 257 238 237
3 258 239 238
2 259 239
3 260 241 240
3 261 242 241
3 262 243 242
3 263 244 243
3 264 245 244
3 265 246 245
3 266 247 246
3 267 248 247
3 268 249 248
3 269 250 249
3 270 251 250
3 271 252 251
3 272 253 252
3 273 254 253
3 274 255 254
3 275 256 255
3 276 257 256
3 277 258 257
3 278 259 258
2 279 259
3 280 261 260
3 281 262 261
3 282 263 262
3 283 264 263
3 284 265 264
3 285 266 265
3 286 267 266
3 287 268 267
3 288 269 268
3 289 270 269
3 290 271 270
3 291 272 271
3 292 273 272
3 293 274 273
3 294 275 274
3 295 276 275
3 296 277 276
3 297 278 277
3 298 279 278
2 299 279
3 300 281 280
3 301 282 281
3 302 283 282
3 303 284 283
3 304 285 284
3 305 286 285
3 306 287 286
3 307 288 287
3 308 289 288
3 309 290 289
3 310 291 290
3 311 292 291
3 312 293 292
3 313 294 293
3 314 295 294
3 315 296 295
3 316 297 296
3 317 298 297
3 318 299 298
2 319 299
3 320 301 300
3 321 302 301
3 322 303 302
3 323 304 303
3 324 305 304
3 325 306 305
3 326 307 306
3 327 308 307
3 328 309 308
3 329 310 309
3 330 311 310
3 331 312 311
3 332 313 312
3 333 314 313
3 334 315 314
3 335 316 315
3 336 317 316
3 337 318 317
3 338 319 318
2 339 319
3 340 321 320
3 341 322 321
3 342 323 322
3 343 324 323
3 344 325 324
3 345 326 325
3 346 327 326
3 347 328 327
3 348 329 328
3 349 330 329
3 350 331 330
3 351 332 331
3 352 333 332
3 353 334 333
3 354 335 334
3 355 336 335
3 356 337 336
3 357 338 337
3 358 339 338
2 359 339
3 360 341 340
3 361 342 341
3 362 343 342
3 363 344 343
3 364 345 344
3 365 346 345
3 366 347 346
3 367 348 347
3 368 349 348
3 369 350 349
3 370 351 350
3 371 352 351
3 372 353 352
3 373 354 353
3 374 355 354
3 375 356 355
3 376 357 356
3 377 358 357
3 378 359 358
2 379 359
3 380 361 360
3 381 362 361
3 382 363 362
3 383 364 363
3 384 365 364
3 385 366 365
3 386 367 366
3 387 368 367
3 388 369 368
3 389 370 369
3 390 371 370
3 391 372 371
3 392 373 372
3 393 374 373
3 394 375 374
3 395 376 375
3 396 377 376
3 397 378 377
3 398 379 378
2 399 379
2 381 380
2 382 381
2 383 382
2 384 383
2 385 384
2 386 385
2 387 386
2 388 387
2 389 388
2 390 389
2 391 390
2 392 391
2 393 392
2 394 393
2 395 394
2 396 395
2 397 396
2 398 397
2 399 398
1  399
8
0 1 0 1 1 0 1 0
8
0.5165499316662993 0.48345006833370074 0.5418640503506699 0.4581359496493301 0.6254796799069082 0.3745203200930917 0.6365685612759261 0.3634314387240739
8
1 0 0 1 1 0 1 0
8
0 1 1 0 0 1 0 1
8
1 0 0 1 1 0 1 0
8
0 1 1 0 0 1 0 1
8
0 1 1 0 1 0 0 1
8
0 1 1 0 1 0 1 0
8
0 1 0 1 0 1 0 1
8
1 0 0 1 1 0 1 0
8
1 0 1 0 1 0 0 1
8
0 1 0 1 0 1 0 1
8
0 1 0 1 0 1 1 0
8
1 0 0 1 0 1 1 0
8
0 1 1 0 1 0 0 1
8
0 1 1 0 0 1 1 0
8
1 0 1 0 0 1 0 1
8
0 1 1 0 0 1 0 1
8
1 0 1 0 1 0 0 1
4
0 1 1 0
8
0 1 1 0 1 0 1 0
8
1 0 1 0 1 0 0 1
8
0 1 0 1 0 1 1 0
8
0 1 0 1 1 0 0 1
8
1 0 0 1 1 0 0 1
8
0 1 0 1 1 0 1 0
8
0 1 0 1 0 1 1 0
8
1 0 1 0 0 1 1 0
8
1 0 1 0 0 1 1 0
8
0 1 1 0 0 1 0 1
8
1 0 1 0 0 1 1 0
8
1 0 1 0 1 0 1 0
8
1 0 0 1 0 1 1 0
8
1 0 0 1 0 1 1 0
8
0 1 0 1 0 1 0 1
8
0 1 1 0 0 1 1 0
8
1 0 1 0 0 1 0 1
8
0.1338819633998626 0.8661180366001374 0.20616773106423417 0.7938322689357659 0.6388713095690527 0.36112869043094725 0.12279900899537163 0.8772009910046283
8
0 1 1 0 0 1 0 1
4
0 1 0 1
8
1 0 1 0 1 0 1 0
8
0 1 0 1 1 0 0 1
8
0 1 1 0 1 0 1 0
8
1 0 0 1 0 1 0 1
8
0 1 0 1 1 0 0 1
8
0 1 0 1 1 0 1 0
8
0 1 0 1 0 1 0 1
8
0 1 1 0 0 1 1 0
8
0 1 1 0 0 1 0 1
8
1 0 1 0 0 1 0 1
8
1 0 0 1 0 1 0 1
8
1 0 1 0 0 1 1 0
8
0.43417094841107595 0.565829051588924 0.5488729162583703 0.4511270837416297 0.510634149873639 0.48936585012636097 0.3315356222333207 0.6684643777666792
8
1 0 0 1 1 0 0 1
8
1 0 0 1 1 0 1 0
8
0 1 1 0 1 0 0 1
8
1 0 1 0 0 1 1 0
8
0 1 0 1 0 1 0 1
8
1 0 1 0 0 1 1 0
4
0.463310360014486 0.5366896399855139 0.7233827033116539 0.27661729668834617
8
0 1 0 1 1 0 0 1
8
1 0 1 0 1 0 1 0
8
1 0 1 0 1 0 0 1
8
1 0 0 1 1 0 0 1
8
1 0 1 0 1 0 1 0
8
0 1 1 0 0 1 0 1
8
1 0 0 1 0 1 1 0
8
1 0 0 1 1 0 1 0
8
1 0 1 0 0 1 0 1
8
0 1 1 0 0 1 1 0
8
1 0 1 0 1 0 1 0
8
1 0 1 0 0 1 1 0
8
0.6858619508214963 0.3141380491785038 0.6727946839382434 0.32720531606175657 0.6992260790332144 0.30077392096678546 0.34769596956262044 0.6523040304373795
8
0 1 1 0 1 0 1 0
8
1 0 1 0 0 1 1 0
8
0.6025431589774226 0.3974568410225774 0.15772665542826864 0.8422733445717314 0.4214816503026054 0.5785183496973945 0.54263199841954 0.45736800158045987
8
1 0 1 0 1 0 1 0
8
1 0 1 0 1 0 0 1
8
1 0 0 1 0 1 1 0
4
1 0 0 1
8
0 1 0 1 1 0 1 0
8
0 1 0 1 0 1 1 0
8
0 1 1 0 1 0 1 0
8
1 0 0 1 1 0 1 0
8
0 1 0 1 0 1 0 1
8
0 1 0 1 0 1 0 1
8
0.26262512234336816 0.7373748776566318 0.7280467038942663 0.2719532961057337 0.107733540474788 0.892266459525212 0.8769628026902995 0.1230371973097005
8
0 1 1 0 0 1 0 1
8
1 0 0 1 0 1 1 0
8
0 1 1 0 1 0 0 1
8
0 1 1 0 1 0 0 1
8
1 0 1 0 1 0 1 0
8
1 0 1 0 0 1 1 0
8
0 1 1 0 1 0 0 1
8
1 0 0 1 0 1 1 0
8
1 0 1 0 0 1 0 1
8
0 1 1 0 0 1 1 0
8
1 0 0 1 0 1 1 0
8
0 1 1 0 0 1 0 1
4
1 0 0 1
8
0 1 1 0 1 0 1 0
8
0 1 0 1 0 1 0 1
8
0 1 1 0 0 1 0 1
8
0 1 0 1 1 0 1 0
8
1 0 0 1 1 0 0 1
8
1 0 1 0 1 0 1 0
8
1 0 1 0 0 1 0 1
8
1 0 0 1 0 1 0 1
8
1 0 0 1 0 1 0 1
8
1 0 0 1 0 1 0 1
8
1 0 1 0 1 0 1 0
8
1 0 1 0 1 0 1 0
8
1 0 1 0 0 1 1 0
8
1 0 0 1 1 0 1 0
8
0 1 0 1 0 1 1 0
8
0.7721530255962828 0.2278469744037172 0.7745060628517327 0.2254939371482673 0.3725201485077171 0.6274798514922829 0.4730490045803591 0.5269509954196409
8
0.8825447249642412 0.1174552750357588 0.886743645648238 0.11325635435176198 0.32318531741765333 0.6768146825823467 0.22164587723632634 0.7783541227636737
8
0 1 0 1 0 1 1 0
8
1 0 1 0 0 1 0 1
4
1 0 1 0
8
0 1 1 0 1 0 1 0
8
1 0 1 0 1 0 1 0
8
1 0 1 0 0 1 0 1
8
1 0 0 1 1 0 0 1
8
0.7764026563865328 0.22359734361346711 0.6161903488876709 0.38380965111232906 0.717377781901924 0.28262221809807603 0.6895517102556306 0.3104482897443695
8
0 1 0 1 1 0 0 1
8
1 0 1 0 0 1 0 1
8
1 0 1 0 1 0 1 0
8
1 0 1 0 1 0 0 1
8
0 1 1 0 1 0 0 1
8
1 0 1 0 0 1 1 0
8
0 1 0 1 1 0 1 0
8
1 0 1 0 1 0 1 0
8
0 1 0 1 0 1 0 1
8
0.46228595605790457 0.5377140439420955 0.6141004907418066 0.3858995092581934 0.7856668193100896 0.2143331806899103 0.28014485351784574 0.7198551464821542
8
1 0 0 1 0 1 0 1
8
1 0 0 1 0 1 1 0
8
1 0 0 1 0 1 1 0
8
0 1 1 0 1 0 1 0
4
0.6005871250515543 0.3994128749484457 0.015695364946162492 0.9843046350538375
8
0 1 0 1 1 0 0 1
8
0 1 0 1 1 0 0 1
8
1 0 1 0 0 1 1 0
8
1 0 1 0 0 1 0 1
8
1 0 1 0 0 1 0 1
8
0.3861534276835359 0.6138465723164641 0.8106833800100279 0.1893166199899722 0.23729087352631997 0.76270912647368 0.14905807435721488 0.8509419256427851
8
0 1 0 1 0 1 0 1
8
0.9222727532684508 0.07772724673154914 0.43740697693418923 0.5625930230658108 0.6395026360817355 0.3604973639182644 0.7254680403700831 0.27453195962991694
8
1 0 0 1 0 1 0 1
8
0 1 1 0 1 0 0 1
8
0 1 0 1 0 1 1 0
8
0 1 0 1 0 1 1 0
8
0 1 0 1 0 1 0 1
8
1 0 0 1 1 0 0 1
8
0 1 0 1 1 0 0 1
8
0 1 1 0 1 0 1 0
8
1 0 1 0 0 1 1 0
8
0 1 0 1 1 0 0 1
8
0 1 0 1 0 1 0 1
4
1 0 0 1
8
1 0 0 1 0 1 1 0
8
0.49987404532453644 0.5001259546754635 0.3963736995927414 0.6036263004072586 0.48568744854239293 0.514312551457607 0.4021561529667332 0.5978438470332668
8
0 1 0 1 0 1 0 1
8
1 0 0 1 0 1 0 1
8
0 1 1 0 0 1 0 1
8
1 0 1 0 1 0 0 1
8
0 1 0 1 1 0 0 1
8
1 0 1 0 1 0 1 0
8
1 0 1 0 0 1 1 0
8
0 1 0 1 0 1 1 0
8
1 0 0 1 0 1 0 1
8
1 0 1 0 0 1 0 1
8
0 1 1 0 1 0 1 0
8
1 0 1 0 1 0 1 0
8
0.2578650995873239 0.742134900412676 0.2709928572982885 0.7290071427017115 0.17697512021642975 0.8230248797835703 0.9370487658694485 0.06295123413055147
8
1 0 1 0 0 1 0 1
8
0 1 0 1 0 1 1 0
8
0 1 0 1 1 0 0 1
8
0 1 1 0 1 0 0 1
4
0 1 0 1
8
1 0 0 1 1 0 1 0
8
1 0 1 0 1 0 0 1
8
1 0 1 0 0 1 0 1
8
1 0 1 0 1 0 1 0
8
1 0 1 0 0 1 0 1
8
1 0 1 0 1 0 0 1
8
1 0 1 0 1 0 1 0
8
1 0 0 1 1 0 0 1
8
1 0 1 0 1 0 1 0
8
1 0 1 0 1 0 0 1
8
0 1 0 1 0 1 1 0
8
1 0 0 1 1 0 1 0
8
1 0 1 0 1 0 1 0
8
1 0 0 1 0 1 0 1
8
1 0 0 1 1 0 1 0
8
0 1 1 0 0 1 1 0
8
1 0 1 0 0 1 0 1
8
0 1 1 0 0 1 1 0
8
1 0 0 1 0 1 0 1
4
0.2307551051270136 0.7692448948729864 0.4058518867578633 0.5941481132421367
8
0 1 1 0 0 1 0 1
8
1 0 1 0 0 1 1 0
8
1 0 0 1 0 1 0 1
8
0 1 0 1 1 0 0 1
8
1 0 1 0 0 1 1 0
8
0.3921665822424709 0.6078334177575292 0.2572480304830671 0.7427519695169329 0.5780337269865834 0.4219662730134166 0.4993259469832464 0.5006740530167537
8
1 0 1 0 1 0 0 1
8
0 1 1 0 0 1 0 1
8
0 1 0 1 1 0 0 1
8
0 1 1 0 0 1 1 0
8
1 0 0 1 0 1 0 1
8
0 1 0 1 0 1 1 0
8
1 0 1 0 1 0 1 0
8
0 1 1 0 0 1 0 1
8
0 1 1 0 0 1 1 0
8
1 0 0 1 0 1 1 0
8
0 1 1 0 0 1 1 0
8
0 1 0 1 1 0 1 0
8
1 0 1 0 0 1 1 0
4
1 0 1 0
8
0 1 1 0 0 1 0 1
8
0 1 1 0 0 1 1 0
8
0 1 0 1 0 1 1 0
8
1 0 0 1 0 1 0 1
8
0 1 0 1 1 0 1 0
8
0.6372348636800608 0.3627651363199391 0.663094308904213 0.3369056910957871 0.4409482617424519 0.5590517382575482 0.4269703298183768 0.5730296701816232
8
1 0 0 1 1 0 0 1
8
0 1 0 1 1 0 1 0
8
1 0 0 1 1 0 0 1
8
1 0 1 0 1 0 0 1
8
0 1 1 0 0 1 0 1
8
1 0 0 1 0 1 1 0
8
1 0 1 0 0 1 1 0
8
0 1 1 0 0 1 0 1
8
1 0 0 1 0 1 1 0
8
1 0 0 1 1 0 1 0
8
0.27627951769314857 0.7237204823068514 0.45552396535651335 0.5444760346434866 0.6623209949923766 0.3376790050076234 0.7657760330672032 0.23422396693279682
8
0 1 0 1 0 1 0 1
8
0 1 0 1 0 1 0 1
4
1 0 1 0
8
1 0 0 1 1 0 1 0
8
0.7526572676317461 0.24734273236825385 0.45167483134838476 0.5483251686516153 0.31673896012561964 0.6832610398743802 0.5449790614876545 0.4550209385123454
8
0 1 0 1 1 0 1 0
8
1 0 0 1 0 1 0 1
8
1 0 0 1 1 0 1 0
8
1 0 0 1 0 1 0 1
8
0.4454641137325691 0.5545358862674308 0.9798342502268343 0.020165749773165598 0.3941894033081385 0.6058105966918615 0.02900181652656786 0.9709981834734321
8
0 1 1 0 1 0 1 0
8
0 1 0 1 1 0 1 0
8
0 1 1 0 0 1 1 0
8
0 1 0 1 0 1 0 1
8
0 1 0 1 0 1 1 0
8
0 1 0 1 0 1 0 1
8
1 0 1 0 0 1 1 0
8
1 0 1 0 1 0 1 0
8
0 1 1 0 1 0 0 1
8
0 1 0 1 1 0 1 0
8
0 1 0 1 0 1 0 1
8
0 1 0 1 0 1 1 0
4
0.6631959551160873 0.33680404488391275 0.3462311160226332 0.6537688839773669
8
1 0 1 0 0 1 1 0
8
0 1 0 1 0 1 1 0
8
0 1 0 1 0 1 0 1
8
0 1 1 0 1 0 1 0
8
1 0 0 1 1 0 0 1
8
0 1 1 0 1 0 1 0
8
0.8132928196669063 0.18670718033309372 0.4235689723424373 0.5764310276575627 0.46370978200621765 0.5362902179937823 0.48159058236567975 0.5184094176343204
8
0 1 1 0 1 0 0 1
8
0 1 1 0 0 1 1 0
8
1 0 0 1 0 1 0 1
8
0.25455084490769797 0.7454491550923019 0.3060705687076796 0.6939294312923204 0.6875215528553931 0.3124784471446069 0.9197239301104492 0.08027606988955087
8
1 0 0 1 0 1 1 0
8
1 0 0 1 0 1 0 1
8
0 1 0 1 1 0 1 0
8
0 1 0 1 0 1 0 1
8
0 1 0 1 1 0 1 0
8
0 1 1 0 1 0 1 0
8
0 1 1 0 1 0 0 1
8
0 1 0 1 0 1 1 0
4
0 1 0 1
8
0 1 1 0 1 0 0 1
8
1 0 0 1 1 0 1 0
8
1 0 1 0 0 1 0 1
8
0 1 1 0 1 0 1 0
8
1 0 0 1 0 1 0 1
8
0.8062446582705671 0.19375534172943285 0.725731128274328 0.274268871725672 0.8651002048063902 0.13489979519360984 0.45577182932992305 0.5442281706700769
8
0 1 1 0 1 0 1 0
8
0 1 1 0 1 0 1 0
8
0 1 0 1 1 0 1 0
8
0.9085635037127411 0.09143649628725893 0.43360616580811434 0.5663938341918857 0.2494588909972912 0.7505411090027088 0.40133202347798635 0.5986679765220136
8
1 0 0 1 0 1 1 0
8
1 0 1 0 0 1 0 1
8
1 0 1 0 1 0 1 0
8
0 1 1 0 0 1 0 1
8
0.5017334193118016 0.49826658068819835 0.3795455150196977 0.6204544849803022 0.7700775025949096 0.22992249740509038 0.39244069876028087 0.6075593012397192
8
1 0 0 1 1 0 0 1
8
1 0 1 0 1 0 0 1
8
0 1 0 1 1 0 1 0
8
1 0 0 1 1 0 0 1
4
0 1 1 0
8
1 0 1 0 0 1 1 0
8
0.729366166428323 0.27063383357167703 0.5294864880693089 0.4705135119306912 0.2901033552947962 0.7098966447052037 0.5153449344640976 0.4846550655359025
8
0.5337196504514082 0.46628034954859165 0.5412126395869238 0.45878736041307605 0.06577719318734172 0.9342228068126582 0.8327572906013251 0.1672427093986749
8
1 0 1 0 0 1 0 1
8
1 0 1 0 0 1 1 0
8
0 1 1 0 1 0 0 1
8
1 0 0 1 1 0 1 0
8
1 0 1 0 0 1 0 1
8
1 0 1 0 1 0 1 0
8
0 1 0 1 1 0 1 0
8
1 0 0 1 0 1 0 1
8
0 1 0 1 0 1 0 1
8
0 1 1 0 0 1 0 1
8
0 1 1 0 0 1 0 1
8
0 1 0 1 0 1 1 0
8
1 0 1 0 1 0 0 1
8
0 1 0 1 0 1 0 1
8
0 1 1 0 0 1 0 1
8
0 1 1 0 0 1 0 1
4
0 1 0 1
8
0 1 0 1 0 1 1 0
8
0 1 1 0 1 0 1 0
8
1 0 1 0 1 0 0 1
8
0 1 1 0 0 1 1 0
8
1 0 1 0 1 0 1 0
8
0 1 0 1 1 0 0 1
8
0 1 0 1 1 0 0 1
8
1 0 1 0 1 0 0 1
8
0 1 0 1 0 1 1 0
8
0.6831330459833438 0.31686695401665627 0.9508040511933037 0.049195948806696324 0.8437941786647039 0.15620582133529612 0.5058461642476636 0.4941538357523364
8
0 1 0 1 1 0 1 0
8
1 0 1 0 0 1 0 1
8
0.452173832992486 0.547826167007514 0.550025587018843 0.449974412981157 0.5962602222119082 0.4037397777880918 0.5520965167097326 0.4479034832902675
8
1 0 0 1 1 0 1 0
8
0 1 1 0 0 1 0 1
8
0.2164734977539597 0.7835265022460403 0.038530402286197744 0.9614695977138022 0.4195391093653748 0.5804608906346252 0.45557553795629746 0.5444244620437025
8
0.048679561743943056 0.9513204382560569 0.6328891463605681 0.3671108536394319 0.9977545166340669 0.0022454833659330997 0.52368076036994 0.47631923963005995
8
1 0 0 1 1 0 1 0
8
0 1 1 0 1 0 0 1
4
0 1 1 0
8
1 0 0 1 1 0 0 1
8
0 1 1 0 0 1 1 0
8
0.355412200890848 0.644587799109152 0.4778251809962256 0.5221748190037744 0.5337402043361453 0.46625979566385467 0.4592273222127113 0.5407726777872887
8
1 0 1 0 1 0 1 0
8
1 0 0 1 0 1 0 1
8
0 1 1 0 1 0 1 0
8
1 0 1 0 0 1 1 0
8
1 0 1 0 1 0 1 0
8
0.9320377090156315 0.06796229098436857 0.2664311519291511 0.7335688480708489 0.48980764613444494 0.5101923538655551 0.21936928832310684 0.7806307116768931
8
1 0 1 0 1 0 1 0
8
1 0 0 1 1 0 0 1
8
0 1 0 1 0 1 0 1
8
0 1 1 0 1 0 0 1
8
1 0 0 1 0 1 1 0
8
0 1 0 1 0 1 0 1
8
0 1 0 1 0 1 1 0
8
1 0 0 1 0 1 1 0
8
1 0 0 1 1 0 1 0
8
0 1 0 1 0 1 0 1
4
0 1 1 0
8
0 1 1 0 0 1 1 0
8
0 1 0 1 1 0 1 0
8
0 1 0 1 0 1 1 0
8
1 0 1 0 1 0 0 1
8
0 1 1 0 1 0 0 1
8
0 1 0 1 0 1 0 1
8
0 1 1 0 1 0 1 0
8
0 1 1 0 1 0 0 1
8
0 1 1 0 0 1 0 1
8
1 0 1 0 0 1 1 0
8
0.5548037185836243 0.44519628141637585 0.8324141321132442 0.16758586788675583 0.7372299316146881 0.2627700683853119 0.08285880745914587 0.9171411925408541
8
0 1 1 0 0 1 1 0
8
1 0 0 1 1 0 0 1
8
0 1 1 0 0 1 0 1
8
0 1 0 1 0 1 1 0
8
1 0 0 1 1 0 1 0
8
1 0 1 0 0 1 0 1
8
1 0 0 1 0 1 1 0
8
0 1 1 0 0 1 0 1
4
0 1 1 0
4
0 1 0 1
4
0 1 1 0
4
0 1 1 0
4
0.5421362037579006 0.4578637962420994 0.4884674544695084 0.5115325455304915
4
1 0 0 1
4
0.374875592060151 0.6251244079398491 0.7044768175792147 0.2955231824207853
4
1 0 1 0
4
0 1 0 1
4
0 1 1 0
4
1 0 1 0
4
0 1 0 1
4
1 0 1 0
4
1 0 1 0
4
0 1 0 1
4
1 0 1 0
4
0 1 1 0
4
1 0 1 0
4
0 1 0 1
4
0.2630711671240255 0.7369288328759745 0.4088576541660958 0.5911423458339042
2
0 1
